WARNING: for repeatability, setting FPU to use double precision
============================[ Problem Statistics ]=============================
|                                                                             |
|  Number of variables:           100                                         |
|  Number of clauses:             449                                         |
|  Parse time:                   0.00 s                                       |
|  Eliminated clauses:           0.00 Mb                                      |
|  Simplification time:          0.00 s                                       |
|                                                                             |
============================[ Search Statistics ]==============================
| Conflicts |          ORIGINAL         |          LEARNT          | Progress |
|           |    Vars  Clauses Literals |    Limit  Clauses Lit/Cl |          |
===============================================================================
|       100 |      98      445     1342 |      163      100      7 |  0.010 % |
|       250 |      98      445     1342 |      179      166      8 |  0.010 % |
|       475 |      98      445     1342 |      197      111      6 |  0.010 % |
|       812 |      98      445     1342 |      217      135      5 |  0.100 % |
===============================================================================
restarts              : 7
conflicts             : 886            (305517 /sec)
decisions             : 1086           (0.00 % random) (374483 /sec)
propagations          : 20768          (7161379 /sec)
conflict literals     : 5881           (22.31 % deleted)
Memory used           : 13.00 MB
CPU time              : 0.0029 s

SATISFIABLE
